122 5
10 10 10 10 10 

0 0 0 0 0 0 5 2 14 26 38 50 
0 0 0 0 0 0 4 3 4 5 7 
2 0 0 0 1 0 3 9 8 6 
7 0 0 0 4 0 3 11 9 8 
2 0 0 0 1 0 3 12 11 8 
1 0 0 0 3 0 2 11 10 
8 0 0 0 5 0 2 11 10 
2 0 0 0 2 0 1 10 
7 0 0 0 1 0 1 12 
2 0 0 0 1 0 1 13 
8 0 0 0 3 0 1 13 
6 0 0 0 4 0 1 13 
0 0 0 0 0 0 1 62 
0 0 0 0 0 0 4 15 16 17 24 
8 0 0 0 0 1 4 23 22 19 18 
4 0 0 0 0 2 3 22 21 19 
1 0 0 0 0 3 2 21 19 
7 0 0 0 0 2 2 21 20 
4 0 0 0 0 2 1 20 
2 0 0 0 0 5 1 25 
8 0 0 0 0 1 1 25 
9 0 0 0 0 3 1 25 
8 0 0 0 0 2 1 25 
8 0 0 0 0 4 1 25 
0 0 0 0 0 0 1 62 
0 0 0 0 0 0 5 27 28 29 30 32 
8 0 0 0 0 1 3 36 33 31 
4 0 0 0 0 4 3 36 33 31 
3 0 0 0 0 3 3 36 33 31 
3 0 0 0 0 2 1 31 
4 0 0 0 0 2 2 35 34 
2 0 0 0 0 3 2 35 34 
3 0 0 0 0 1 1 34 
9 0 0 0 0 2 1 37 
2 0 0 0 0 3 1 37 
2 0 0 0 0 4 1 37 
0 0 0 0 0 0 1 62 
0 0 0 0 0 0 4 39 40 41 43 
2 0 0 1 0 0 3 48 45 42 
9 0 0 2 0 0 4 48 47 45 44 
3 0 0 2 0 0 3 47 45 44 
9 0 0 3 0 0 2 46 44 
5 0 0 5 0 0 1 46 
4 0 0 2 0 0 1 49 
9 0 0 1 0 0 1 49 
3 0 0 2 0 0 1 49 
4 0 0 2 0 0 1 49 
3 0 0 5 0 0 1 49 
0 0 0 0 0 0 1 62 
0 0 0 0 0 0 4 51 52 53 58 
9 1 0 0 0 0 4 57 56 55 54 
8 3 0 0 0 0 4 57 56 55 54 
9 1 0 0 0 0 3 56 55 54 
6 3 0 0 0 0 2 60 59 
2 1 0 0 0 0 1 60 
4 3 0 0 0 0 1 59 
9 4 0 0 0 0 1 60 
6 3 0 0 0 0 1 59 
5 4 0 0 0 0 1 61 
2 2 0 0 0 0 1 61 
0 0 0 0 0 0 1 62 
0 0 0 0 0 0 2 63 75 
0 0 0 0 0 0 4 64 65 67 68 
7 0 0 0 1 0 2 73 66 
4 0 0 0 2 0 4 72 71 70 69 
8 0 0 0 3 0 3 72 70 69 
6 0 0 0 2 0 3 71 70 69 
5 0 0 0 2 0 3 71 70 69 
1 0 0 0 3 0 1 74 
8 0 0 0 4 0 1 74 
10 0 0 0 1 0 1 74 
6 0 0 0 2 0 1 74 
6 0 0 0 5 0 1 74 
0 0 0 0 0 0 1 87 
0 0 0 0 0 0 3 76 77 80 
7 0 0 0 0 1 4 85 83 79 78 
10 0 0 0 0 4 3 83 82 81 
1 0 0 0 0 2 1 82 
5 0 0 0 0 1 1 81 
8 0 0 0 0 2 1 84 
7 0 0 0 0 3 1 86 
9 0 0 0 0 3 1 86 
6 0 0 0 0 5 1 86 
3 0 0 0 0 3 1 86 
1 0 0 0 0 1 1 86 
0 0 0 0 0 0 1 87 
0 0 0 0 0 0 6 88 91 92 93 94 95 
3 0 0 0 1 0 2 90 89 
8 0 0 0 3 0 2 97 96 
10 0 0 0 1 0 2 97 96 
3 0 0 0 4 0 2 97 96 
9 0 0 0 3 0 2 97 96 
8 0 0 0 1 0 1 96 
6 0 0 0 2 0 1 96 
10 0 0 0 4 0 1 96 
4 0 0 0 2 0 1 98 
8 0 0 0 4 0 1 98 
0 0 0 0 0 0 1 99 
0 0 0 0 0 0 4 100 101 102 103 
3 0 1 0 0 0 3 106 105 104 
7 0 4 0 0 0 3 106 105 104 
3 0 1 0 0 0 3 106 105 104 
10 0 2 0 0 0 2 105 104 
7 0 1 0 0 0 3 109 108 107 
2 0 1 0 0 0 3 109 108 107 
1 0 4 0 0 0 3 109 108 107 
1 0 2 0 0 0 1 110 
7 0 3 0 0 0 1 110 
3 0 6 0 0 0 1 110 
0 0 0 0 0 0 1 111 
0 0 0 0 0 0 8 112 113 115 116 118 119 120 121 
9 1 0 0 0 0 1 114 
6 4 0 0 0 0 1 114 
7 3 0 0 0 0 1 117 
1 3 0 0 0 0 1 117 
8 1 0 0 0 0 1 117 
5 1 0 0 0 0 1 122 
8 2 0 0 0 0 1 122 
2 2 0 0 0 0 1 122 
2 5 0 0 0 0 1 122 
7 3 0 0 0 0 1 122 
0 0 0 0 0 0 0 
